NAME : R205.994429.tour
COMMENT : Cost = 0_994429
COMMENT : Found by LKH [Keld Helsgaun] Thu Sep 14 00:45:47 2017
TYPE : TOUR
DIMENSION : 103
TOUR_SECTION
1
28
70
32
63
64
12
20
37
48
83
8
89
53
19
85
62
17
45
39
87
86
100
7
95
98
88
44
58
75
57
5
27
55
56
26
25
81
69
78
2
102
46
84
6
60
96
93
99
15
43
16
3
73
40
68
24
76
23
42
74
22
41
54
77
51
4
80
82
10
79
35
36
67
21
33
11
71
49
61
90
103
29
13
30
34
66
72
52
31
91
65
50
47
9
18
92
101
38
94
97
14
59
-1
EOF
